phonons of Si mesh
 &inputph
  tr2_ph=1.0d-18,
  prefix='aln',
  alpha_mix(1)=0.5
  fildyn='aln.dyn',
  ldisp=.true.
  epsil=.true.
  nq1=4,nq2=4,nq3=2,
  outdir='./'
 /
