&CONTROL
  calculation = 'vc-relax'
  etot_conv_thr =   4.0000000000d-05
  forc_conv_thr =   1.0000000000d-04
  outdir = './'
  prefix = 'aiida'
  pseudo_dir = './pseudo/'
  tprnfor = .true.
  tstress = .true.
  verbosity = 'high'
/
&SYSTEM
  ecutrho =   4.8000000000d+02
  ecutwfc =   5.0000000000d+01
  ibrav = 0
  nat = 4
  ntyp = 2
/
&ELECTRONS
  conv_thr =   8.0000000000d-10
  electron_maxstep = 80
  mixing_beta =   4.0000000000d-01
/
&IONS
/
&CELL
/
ATOMIC_SPECIES
Al     26.981538 Al.pbe-n-kjpaw_psl.1.0.0.UPF
N      14.0067 N.pbe-n-radius_5.UPF
K_POINTS automatic
6 6 3 0 0 0
ATOMIC_POSITIONS angstrom
Al      0.8986457   1.5565000   0.0000000
Al      1.7972914   0.0000000   2.4905000
N       0.8986457   1.5565000   1.8927800
N       1.7972914   0.0000000   4.3832800
CELL_PARAMETERS angstrom
  2.6959371  -1.5565000   0.0000000 
  0.0000000   3.1130000   0.0000000 
  0.0000000   0.0000000   4.9810000 
