&CONTROL
  calculation = 'scf'
  outdir = './'
  prefix = 'aln'
  pseudo_dir = './pseudo/'
  tprnfor = .true.
  tstress = .true.
  verbosity = 'high'
  
  !this parameter allows to run the following calculations with a different parallelization
  wf_collect=.true.
/
&SYSTEM
  ecutrho =   4.8000000000d+02
  ecutwfc =   5.0000000000d+01
  ibrav = 0
  nat = 4
  nosym = .false.
  ntyp = 2
/
&ELECTRONS
  conv_thr =   8.0000000000d-10
  electron_maxstep = 80
  mixing_beta =   4.0000000000d-01
/
ATOMIC_SPECIES
Al     26.981538 Al.pbe-n-kjpaw_psl.1.0.0.UPF
N      14.0067 N.pbe-n-radius_5.UPF
K_POINTS automatic
6 6 3 0 0 0
ATOMIC_POSITIONS angstrom
Al            0.9037450060        1.5653322571       -0.0037653424
Al            1.8074900119        0.0000000000        2.5058927507
N             0.9037450060        1.5653322571        1.9111054932
N             1.8074900119        0.0000000000        4.4207635863
CELL_PARAMETERS angstrom
   2.711235018  -1.565332257   0.000000000
  -0.000000000   3.130664514   0.000000000
   0.000000000   0.000000000   5.019316186
