&input
zasr='simple'
fildyn='aln.dyn'
flfrc='aln.fc'
/
