&CONTROL
  calculation = 'scf'
  etot_conv_thr =   1.0000000000d-05
  forc_conv_thr =   1.0000000000d-04
  outdir = './'
  prefix = 'al'
  pseudo_dir = './pseudo/'
  tprnfor = .true.
  tstress = .true.
  verbosity = 'high'
/
&SYSTEM
  degauss =   1.4699723600d-02
  ecutrho =   2.4000000000d+02
  ecutwfc =   3.0000000000d+01
  ibrav = 0
  nat = 1
  nosym = .false.
  ntyp = 1
  occupations = 'smearing'
  smearing = 'cold'
/
&ELECTRONS
  conv_thr =   2.0000000000d-10
  electron_maxstep = 80
  mixing_beta =   4.0000000000d-01
/
ATOMIC_SPECIES
Al     26.981538 Al.pbe-n-kjpaw_psl.1.0.0.UPF
ATOMIC_POSITIONS crystal
Al           0.0000000000       0.0000000000       0.0000000000 
K_POINTS automatic
14 14 14 0 0 0
CELL_PARAMETERS angstrom
   2.018450250   2.018450250   0.000000000
   2.018450250   0.000000000   2.018450250
  -0.000000000   2.018450250   2.018450250
