&CONTROL
  calculation = 'vc-relax'
  etot_conv_thr =   4.0000000000d-05
  forc_conv_thr =   1.0000000000d-04
  outdir = './'
  prefix = 'aiida'
  pseudo_dir = './pseudo/'
  tprnfor = .true.
  tstress = .true.
  verbosity = 'high'
/
&SYSTEM
  ecutrho =   4.8000000000d+02
  ecutwfc =   5.0000000000d+01
  ibrav = 0
  nat = 4
  ntyp = 2
/
&ELECTRONS
  conv_thr =   8.0000000000d-10
  electron_maxstep = 80
  mixing_beta =   4.0000000000d-01
/
&IONS
/
&CELL
/
ATOMIC_SPECIES
Al     26.981538 Al.pbe-n-kjpaw_psl.1.0.0.UPF
N      14.0067 N.pbe-n-radius_5.UPF
K_POINTS automatic
6 6 ?? 0 0 0
ATOMIC_POSITIONS angstrom
...
...
...
...
CELL_PARAMETERS angstrom
...
...
...
