&BANDS
  prefix = 'si'
  outdir = './'
  filband = 'si_bands.dat'
/
