&CONTROL

  ! here we specify  new type of calculation, 'bands' that is a non-self consistent calculation to determine the eigenvalues at the specified k-points
  calculation = 'bands'
  
  prefix = 'si'
  outdir = './'
  pseudo_dir = './pseudo/'
  verbosity = 'high'  
/
&SYSTEM
  ecutwfc =   30
  ecutrho =   240
  ibrav = 0
  nat = 2
  ntyp = 1
  
  ! here we need to specify the number of bands, otherwise only the occupied ones are included
  nbnd = 10
/
&ELECTRONS
  conv_thr =   4.0000000000d-10
  electron_maxstep = 100
  mixing_beta =   0.4
/
ATOMIC_SPECIES
Si     28.0855 Si.pbe-n-rrkjus_psl.1.0.0.UPF
ATOMIC_POSITIONS angstrom
Si            0.0000000000       -0.0000000000        0.0000000000
Si            1.3672162898        1.3672162898        1.3672162898
CELL_PARAMETERS angstrom
   2.734432580   2.734432580   0.000000000
   2.734432580   0.000000000   2.734432580
   0.000000000   2.734432580   2.734432580
K_POINTS {crystal_b}
5
  0.0000 0.5000 0.0000 20  !L
  0.0000 0.0000 0.0000 30  !G
  -0.500 0.0000 -0.500 10  !X
  -0.375 0.2500 -0.375 30  !U
  0.0000 0.0000 0.0000 20  !G
