&CONTROL
  calculation = 'vc-relax'
  etot_conv_thr =   1.0000000000d-05
  forc_conv_thr =   1.0000000000d-04
  outdir = './'
  prefix = 'al'
  pseudo_dir = './pseudo/'
  tprnfor = .true.
  tstress = .true.
  verbosity = 'high'
/
&SYSTEM
  ecutrho =   2.4000000000d+02
  ecutwfc =   3.0000000000d+01
  ibrav = 0
  nat = 1
  ntyp = 1
  
  ! you need to specify that the occupation is not fixed like in insulators with a gap
  occupations = 'smearing'
  
  ! type of smearing that you want to use
  smearing = 'cold'
  
  ! value of the smearing
  degauss =   0.02
/
&ELECTRONS
  conv_thr =   2.0000000000d-10
  electron_maxstep = 80
  mixing_beta =   4.0000000000d-01
/
&IONS
/
&CELL
/
ATOMIC_SPECIES
Al     26.981538 Al.pbe-n-kjpaw_psl.1.0.0.UPF
K_POINTS automatic
14 14 14 0 0 0
ATOMIC_POSITIONS angstrom
Al           0.0000000000       0.0000000000       0.0000000000 
CELL_PARAMETERS angstrom
      2.0200000000       2.0200000000       0.0000000000
      2.0200000000       0.0000000000       2.0200000000
      0.0000000000       2.0200000000       2.0200000000
